b"Opening JSON file..\nfn: input_221.txt\nmetrics: ['aspect_ratio', 'vertex_resolution']\ngraph: grid 25\ngenerating graph of 625 nodes\nedge_uniformity 20.017526626586914\nstress 33.087481792292586\nvertex_resolution 0.9367016702890396\nneighborhood_preservation 1\ncrossing_angle_maximization 0.9994616571389566\nangular_resolution 1.0\ncrossings 157085\naspect_ratio 0.051673293113708496\ngabriel 0.9993477737880312\n"
