b"Opening JSON file..\nfn: input_6.txt\nmetrics: ['aspect_ratio']\ngraph: grid 5\ngenerating graph of 25 nodes\ncrossings 215\nstress 33.0250620107252\nneighborhood_preservation 1\naspect_ratio 0.02878934144973755\nvertex_resolution 0.9314887970685959\ngabriel 0.7646690607070923\nangular_resolution 1.0\ncrossing_angle_maximization 0.972540921871296\nedge_uniformity 5.7902679443359375\n"
