b"Opening JSON file..\nfn: input_80.txt\nmetrics: ['crossings', 'gabriel']\ngraph: grid 10\ngenerating graph of 100 nodes\nedge_uniformity 0.02297481894493103\ncrossing_angle_maximization 0\ngabriel 4.172325134277344e-07\nvertex_resolution 0.5153091549873352\nstress 12.025411622744377\nangular_resolution 1.0\ncrossings 0\naspect_ratio 0.08649355173110962\nneighborhood_preservation 1\n"
